proyfinal/src/viki/013/experimentInOfficeAgust.take6.output/27955017-cde0-4072-82e1-f60754302de2.als.dat
{'cnf.clauses': '118081',
 'cnf.totvars': '69608',
 'conflict literals': '56',
 'conflicts': '30',
 'decisions': '10441',
 'memused.mb': '14.88',
 'outcome': 'UNSAT',
 'propagations': '40149',
 'restarts': '1',
 'solver.msecs': 26,
 'task.msecs': 138}
