proyfinal/src/viki/013/experimentInOfficeAgust.take6.output/27955017-cde0-4072-82e1-f60754302de2.als.out
Reading from standard input... Use '--help' for help.
============================[ Problem Statistics ]=============================
|                                                                             |
|  Number of variables:         69608                                         |
|  Number of clauses:          118081                                         |
|  Parse time:                   0.02 s                                       |
|                                                                             |
============================[ Search Statistics ]==============================
| Conflicts |          ORIGINAL         |          LEARNT          | Progress |
|           |    Vars  Clauses Literals |    Limit  Clauses Lit/Cl |          |
===============================================================================
===============================================================================
restarts              : 1
conflicts             : 30             (1143 /sec)
decisions             : 10441          (0.00 % random) (397646 /sec)
propagations          : 40149          (1529078 /sec)
conflict literals     : 56             (0.00 % deleted)
Memory used           : 14.88 MB
CPU time              : 0.026257 s

UNSATISFIABLE
